outputs/knapsack16.output
CPLEX 12.9.0.0: optimal integer solution; objective 4939
5 MIP simplex iterations
0 branch-and-bound nodes
Select [*] :=
 0  0
 1  1
 2  1
 3  0
 4  1
 5  0
 6  0
 7  1
 8  1
 9  1
10  1
11  0
12  1
13  1
14  1
15  1
;

